(declare-fun b_ack!417 () (_ BitVec 32))
(declare-fun a_ack!419 () (_ BitVec 32))
(declare-fun c_ack!418 () (_ BitVec 64))
(assert (not (bvslt b_ack!417 #x00000000)))
(assert (not (bvslt a_ack!419 #x00000000)))
(assert (not (= #x00000000 b_ack!417)))
(assert (not (= #x00000001 b_ack!417)))
(assert (= #x00000000 a_ack!419))
(assert (not (bvslt b_ack!417 #x00000000)))
(assert (not (= #x00000000 b_ack!417)))
(assert (not (= #x00000001 b_ack!417)))
(assert (fp.eq ((_ to_fp 11 53) c_ack!418) ((_ to_fp 11 53) #x0000000000000000)))
(assert (not (= #x00000000 (bvand b_ack!417 #x00000001))))

(check-sat)
(exit)
